%mem=7Gb
%nproc=4
#PBEPBE/gen scf=(maxcycle=500,conver=3) NMR=GIAO Scrf=(solvent=Dichloromethane)

estrutura 108

0 1
Pt      -0.071480       0.310884      -0.124328
P        2.308757       0.639767      -0.042434
C        3.496543      -0.631673       0.605978
C        4.194845      -0.481629       1.815830
C        3.745725      -1.768139      -0.184774
C        5.117472      -1.450187       2.227372
H        4.035511       0.395817       2.443135
C        4.666991      -2.732663       0.229614
H        3.221196      -1.906108      -1.132190
C        5.356006      -2.577916       1.438027
H        5.654968      -1.314675       3.169734
H        4.844576      -3.610058      -0.397013
H        6.079913      -3.331491       1.759547
C        2.578930       2.084953       1.073735
C        3.253820       3.249333       0.680273
C        2.035895       2.017273       2.370257
C        3.384415       4.322353       1.568118
H        3.666012       3.334792      -0.325859
C        2.181874       3.082998       3.259917
H        1.483488       1.130432       2.687413
C        2.854559       4.244073       2.859161
H        3.904171       5.225256       1.243235
H        1.756564       3.012703       4.264488
H        2.959844       5.083484       3.550140
C        3.111060       1.028046      -1.659770
C        4.504999       1.223964      -1.721025
C        2.359407       1.089488      -2.843101
C        5.125780       1.506443      -2.940434
H        5.116020       1.146997      -0.818521
C        2.985292       1.365898      -4.064655
H        1.281591       0.936714      -2.805087
C        4.364302       1.585324      -4.113630
H        6.207344       1.661256      -2.974253
H        2.392315       1.409959      -4.980010
H        4.851779       1.806203      -5.067323
Sn      -0.007792      -2.170474       0.806676
P       -2.457967       0.245172       0.008517
C       -3.396364       1.708504      -0.624654
C       -3.594522       1.839730      -2.010131
C       -3.901091       2.695717       0.233803
C       -4.291615       2.932941      -2.524988
H       -3.204093       1.085477      -2.695907
C       -4.603863       3.789589      -0.285292
H       -3.756587       2.618829       1.312510
C       -4.800283       3.912317      -1.665093
H       -4.434301       3.018078      -3.604234
H       -4.997315       4.547704       0.394188
H       -5.350052       4.766032      -2.067608
C       -3.248910      -1.106569      -0.981004
C       -4.613014      -1.443226      -0.897825
C       -2.462448      -1.732955      -1.966110
C       -5.157673      -2.416268      -1.738161
H       -5.281229      -0.944553      -0.194702
C       -3.016937      -2.690389      -2.823766
H       -1.409467      -1.470455      -2.072186
C       -4.362920      -3.044058      -2.704402
H       -6.216507      -2.671688      -1.646347
H       -2.388137      -3.158756      -3.584439
H       -4.796620      -3.797732      -3.366927
C       -2.929659       0.181422       1.800366
C       -4.146005      -0.319145       2.297882
C       -2.018606       0.750410       2.711433
C       -4.432178      -0.267573       3.664980
H       -4.885656      -0.753467       1.629222
C       -2.313306       0.814145       4.076524
H       -1.070026       1.150744       2.345457
C       -3.520783       0.300069       4.559001
H       -5.381126      -0.670908       4.030053
H       -1.591615       1.265216       4.763262
H       -3.746769       0.341462       5.627445
Br      -0.171866       2.795556      -1.012827
Br       0.826352      -3.724891      -1.170109
C        1.329324      -2.711535       2.448080
H        2.014154      -3.501278       2.108020
H        1.915953      -1.853053       2.798382
H        0.699202      -3.097533       3.265481
C       -1.825778      -3.313750       1.261070
H       -2.186627      -3.796103       0.343528
H       -1.543676      -4.081155       1.999153
H       -2.616260      -2.674609       1.677852

H     0
S   5   1.00
    282.952156333090         0.0004300
     87.0622019486430        0.0005100
     26.7883698303517        0.0061600
      8.24257533241590       0.0130300
      2.53617702535874       0.0994900
S   1   1.00
      0.78036216164884       1.0000000
S   1   1.00
      0.24011143435349       1.0000000
P   1   1.00
      0.88150000000000       1.0000000
P   1   1.00
      0.17989200000000       1.0000000
****
C     0
S   6   1.00
   8846.12353391750          0.0005300
   2948.70784463917          0.0007700
    982.902614879722         0.0040500
    327.634204959907         0.0140300
    109.211401653302         0.0534500
     36.4038005511008        0.1702700
S   1   1.00
     12.1346001837003        1.0000000
S   1   1.00
      4.04486672790009       1.0000000
S   1   1.00
      1.34828890930003       1.0000000
S   1   1.00
      0.44942963643334       1.0000000
S   1   1.00
      0.14980987881111       1.0000000
P   4   1.00
     37.2940933931704        0.0039600
     11.4751056594370        0.0188900
      3.53080174136525       0.0946100
      1.08640053580469       0.3188900
P   1   1.00
      0.33427708793991       1.0000000
P   1   1.00
      0.10285448859689       1.0000000
D   1   1.00
      0.47750000000000       1.0000000
D   1   1.00
      0.11998000000000       1.0000000
****
P     0
S   7   1.00
  59538.0043013517           0.0009500
  21650.1833823097           0.0006100
   7872.79395720353          0.0037500
   2862.83416625583          0.0096300
   1041.03060591121          0.0324300
    378.556583967713         0.0995000
    137.656939624623         0.2657000
S   1   1.00
     50.0570689544083        1.0000000
S   1   1.00
     18.2025705288757        1.0000000
S   1   1.00
      6.61911655595482       1.0000000
S   1   1.00
      2.40695147489266       1.0000000
S   1   1.00
      0.87525508177915       1.0000000
S   1   1.00
      0.31827457519242       1.0000000
S   1   1.00
      0.11573620916088       1.0000000
S   1   1.00
      0.04208589424032       1.0000000
P   5   1.00
    487.996723151500         0.0021600
    162.665574383833         0.0097900
     54.2218581279445        0.0548500
     18.0739527093148        0.2177000
      6.02465090310494       0.4897800
P   1   1.00
      2.00821696770165       1.0000000
P   1   1.00
      0.66940565590055       1.0000000
P   1   1.00
      0.22313521863352       1.0000000
P   1   1.00
      0.07437840621117       1.0000000
P   1   1.00
      0.02479280207039       1.0000000
D   1   1.00
      0.35395000000000       1.0000000
D   1   1.00
      0.08909800000000       1.0000000
****
Br     0
S   7   1.00
 348670.995115554            0.0024100
 139468.398046222            0.0001200
  55787.3592184887           0.0058500
  22314.9436873955           0.0082100
   8925.97747495819          0.0240900
   3570.39098998328          0.0572500
   1428.15639599331          0.1446700
S   1   1.00
    571.262558397324         1.0000000
S   1   1.00
    228.505023358930         1.0000000
S   1   1.00
     91.4020093435719        1.0000000
S   1   1.00
     36.5608037374287        1.0000000
S   1   1.00
     14.6243214949715        1.0000000
S   1   1.00
      5.84972859798860       1.0000000
S   1   1.00
      2.33989143919544       1.0000000
S   1   1.00
      0.93595657567818       1.0000000
S   1   1.00
      0.37438263027127       1.0000000
S   1   1.00
      0.14975305210851       1.0000000
S   1   1.00
      0.05990122084340       1.0000000
P   5   1.00
   4271.50436123164          0.0020900
   1553.27431317514          0.0055700
    564.827022972778         0.0302500
    205.391644717374         0.1219600
     74.6878708063178        0.3786100
P   1   1.00
     27.1592257477519        1.0000000
P   1   1.00
      9.87608209009161       1.0000000
P   1   1.00
      3.59130257821513       1.0000000
P   1   1.00
      1.30592821026005       1.0000000
P   1   1.00
      0.47488298554911       1.0000000
P   1   1.00
      0.17268472201786       1.0000000
P   1   1.00
      0.06279444437013       1.0000000
P   1   1.00
      0.02283434340732       1.0000000
D   4   1.00
    157.766242822167         0.0079800
     52.5887476073889        0.0498700
     17.5295825357963        0.2240500
      5.84319417859877       0.4425000
D   1   1.00
      1.94773139286626       1.0000000
D   1   1.00
      0.64924379762209       1.0000000
F   1   1.00
      1.64800000000000       1.0000000
F   1   1.00
      0.45490000000000       1.0000000
****
Sn     0
S   8   1.00
 754482.145507175            0.0044300
 335325.398003189            0.0019800
 149033.510223639            0.0090500
  66237.1156549509           0.0048700
  29438.7180688671           0.0207700
  13083.8746972742           0.0329000
   5815.05542101078          0.0770100
   2584.46907600479          0.1516000
S   1   1.00
   1148.65292266880          1.0000000
S   1   1.00
    510.512410075020         1.0000000
S   1   1.00
    226.894404477787         1.0000000
S   1   1.00
    100.841957545683         1.0000000
S   1   1.00
     44.8186477980813        1.0000000
S   1   1.00
     19.9193990213695        1.0000000
S   1   1.00
      8.85306623171977       1.0000000
S   1   1.00
      3.93469610298656       1.0000000
S   1   1.00
      1.74875382354958       1.0000000
S   1   1.00
      0.77722392157759       1.0000000
S   1   1.00
      0.34543285403449       1.0000000
S   1   1.00
      0.15352571290422       1.0000000
S   1   1.00
      0.06823365017965       1.0000000
S   1   1.00
      0.01347825188734       1.0000000
P   5   1.00
  10090.6583042438           0.0027500
   4036.26332169752          0.0041800
   1614.50532867901          0.0208900
    645.802131471604         0.0713700
    258.320852588642         0.2261300
P   1   1.00
    103.328341035457         1.0000000
P   1   1.00
     41.3313364141826        1.0000000
P   1   1.00
     16.5325345656731        1.0000000
P   1   1.00
      6.61301382626922       1.0000000
P   1   1.00
      2.64520553050769       1.0000000
P   1   1.00
      1.05808221220308       1.0000000
P   1   1.00
      0.42323288488123       1.0000000
P   1   1.00
      0.16929315395249       1.0000000
P   1   1.00
      0.06771726158100       1.0000000
P   1   1.00
      0.02708690463240       1.0000000
P   1   1.00
      0.01083476185296       1.0000000
D   4   1.00
    554.302506505741         0.0043700
    201.564547820269         0.0251100
     73.2961992073707        0.1331600
     26.6531633481348        0.3890000
D   1   1.00
      9.69205939932174       1.0000000
D   1   1.00
      3.52438523611700       1.0000000
D   1   1.00
      1.28159463131527       1.0000000
D   1   1.00
      0.46603441138737       1.0000000
D   1   1.00
      0.16946705868632       1.0000000
F   1   1.00
      1.31400000000000       1.0000000
F   1   1.00
      0.19993000000000       1.0000000
****
Pt     0
S   9   1.00
2164481.60896527             0.0123200
1082240.80448263             0.0129700
 541120.402241316            0.0263700
 270560.201120658            0.0090400
 135280.100560329            0.0349800
  67640.0502801646           0.0122200
  33820.0251400823           0.0605200
  16910.0125700411           0.0649300
   8455.00628502057          0.1381900
S   1   1.00
   4227.50314251028          1.0000000
S   1   1.00
   2113.75157125514          1.0000000
S   1   1.00
   1056.87578562757          1.0000000
S   1   1.00
    528.437892813786         1.0000000
S   1   1.00
    264.218946406893         1.0000000
S   1   1.00
    132.109473203446         1.0000000
S   1   1.00
     66.0547366017232        1.0000000
S   1   1.00
     33.0273683008616        1.0000000
S   1   1.00
     16.5136841504308        1.0000000
S   1   1.00
      8.25684207521540       1.0000000
S   1   1.00
      4.12842103760770       1.0000000
S   1   1.00
      2.06421051880385       1.0000000
S   1   1.00
      1.03210525940192       1.0000000
S   1   1.00
      0.51605262970096       1.0000000
S   1   1.00
      0.25802631485048       1.0000000
S   1   1.00
      0.12901315742524       1.0000000
S   1   1.00
      0.06450657871262       1.0000000
P   7   1.00
  32357.9152575654           0.0050200
  14381.2956700291           0.0020200
   6391.68696445736          0.0180700
   2840.74976198105          0.0366200
   1262.55544976936          0.1117200
    561.135755453047         0.2558600
    249.393669090243         0.4260800
P   1   1.00
    110.841630706775         1.0000000
P   1   1.00
     49.2629469807888        1.0000000
P   1   1.00
     21.8946431025728        1.0000000
P   1   1.00
      9.73095249003235       1.0000000
P   1   1.00
      4.32486777334771       1.0000000
P   1   1.00
      1.92216345482120       1.0000000
P   1   1.00
      0.85429486880942       1.0000000
P   1   1.00
      0.37968660835974       1.0000000
P   1   1.00
      0.16874960371544       1.0000000
P   1   1.00
      0.07499982387353       1.0000000
P   1   1.00
      0.03333325505490       1.0000000
D   5   1.00
   1911.90035078584          0.0043300
    764.760140314335         0.0177800
    305.904056125734         0.0897100
    122.361622450294         0.3112300
     48.9446489801175        0.5320600
D   1   1.00
     19.5778595920470        1.0000000
D   1   1.00
      7.83114383681879       1.0000000
D   1   1.00
      3.13245753472752       1.0000000
D   1   1.00
      1.25298301389101       1.0000000
D   1   1.00
      0.50119320555640       1.0000000
D   1   1.00
      0.20047728222256       1.0000000
D   1   1.00
      0.08019091288902       1.0000000
D   1   1.00
      0.03207636515561       1.0000000
F   4   1.00
     82.2896809794193        0.0618700
     29.9235203561525        0.2482300
     10.8812801295100        0.4995600
      3.95682913800363       0.4038000
F   1   1.00
      1.43884695927405       1.0000000
F   1   1.00
      0.52321707609965       1.0000000
G   1   1.00
      2.67000000000000       1.0000000
G   1   1.00
      0.90960000000000       1.0000000
****







