%mem=7Gb
%nproc=4
#PBEPBE/gen scf=(maxcycle=500,conver=3) NMR=GIAO Scrf=(solvent=Dichloromethane)

estrutura 111

0 1
Pt       0.030457       0.786610      -0.029152
P        2.444342       0.713239       0.004998
C        3.446744      -0.836562      -0.191552
C        4.177151      -1.414906       0.858486
C        3.543598      -1.399255      -1.476659
C        4.992459      -2.527524       0.624759
H        4.127950      -0.997721       1.863969
C        4.358733      -2.509094      -1.706966
H        2.992653      -0.963069      -2.311962
C        5.088045      -3.075773      -0.656757
H        5.558961      -2.961566       1.452393
H        4.422824      -2.931009      -2.712933
H        5.731050      -3.940781      -0.838489
C        2.978968       1.399273       1.630829
C        3.799121       2.531324       1.752666
C        2.493343       0.775776       2.794996
C        4.143204       3.018128       3.018262
H        4.162481       3.048240       0.864260
C        2.844221       1.262430       4.056783
H        1.838587      -0.096625       2.718810
C        3.672051       2.385163       4.171153
H        4.780554       3.902882       3.097570
H        2.463719       0.765635       4.952663
H        3.942600       2.767613       5.158475
C        3.226106       1.729265      -1.325352
C        4.630565       1.807428      -1.398462
C        2.456970       2.356570      -2.316135
C        5.247545       2.525122      -2.424626
H        5.250709       1.294958      -0.660348
C        3.079099       3.063709      -3.351354
H        1.369499       2.296481      -2.277626
C        4.472211       3.156301      -3.403735
H        6.338433       2.580558      -2.465002
H        2.467515       3.544733      -4.118527
H        4.955804       3.712865      -4.210553
Sn      -0.389637      -1.822535      -0.043498
P       -2.347848       1.066914      -0.068639
C       -3.041238       2.779770      -0.045577
C       -3.176473       3.496198      -1.247504
C       -3.425282       3.387540       1.160297
C       -3.700565       4.791246      -1.241396
H       -2.879422       3.045266      -2.196388
C       -3.949056       4.684056       1.161503
H       -3.321866       2.853622       2.106194
C       -4.090443       5.387715      -0.037908
H       -3.806317       5.335103      -2.183342
H       -4.249241       5.142804       2.106621
H       -4.504224       6.399375      -0.035200
C       -3.077036       0.386585      -1.627158
C       -4.464221       0.317233      -1.862140
C       -2.201392       0.022321      -2.665554
C       -4.954330      -0.158093      -3.080361
H       -5.180159       0.653834      -1.112358
C       -2.694718      -0.432840      -3.893432
H       -1.122303       0.108964      -2.521203
C       -4.071567      -0.536923      -4.098329
H       -6.033751      -0.220697      -3.237094
H       -1.994734      -0.704737      -4.686695
H       -4.459051      -0.900646      -5.053293
C       -3.108779       0.300397       1.435981
C       -4.458106      -0.084264       1.532402
C       -2.290735       0.177295       2.574385
C       -4.968132      -0.592159       2.729602
H       -5.128471       0.000602       0.679741
C       -2.805995      -0.323017       3.774542
H       -1.240624       0.475299       2.526094
C       -4.145209      -0.712474       3.854364
H       -6.017609      -0.892358       2.781617
H       -2.152824      -0.409542       4.645852
H       -4.548393      -1.107787       4.790007
Br       0.317823       3.351361       0.292193
Br       0.489796      -3.050580      -2.171534
Br       0.938618      -2.893534       1.939307
C       -2.348119      -2.834615       0.143028
H       -2.661343      -2.652246       1.182759
H       -2.996359      -2.229128      -0.508122
C       -2.450358      -4.316431      -0.226585
H       -3.525957      -4.547543      -0.355660
H       -1.990156      -4.496969      -1.213839
C       -1.868421      -5.295416       0.798722
H       -0.787675      -5.112988       0.917694
H       -2.316987      -5.086773       1.787516
C       -2.102237      -6.761672       0.432249
H       -1.618288      -7.019613      -0.524916
H       -1.695310      -7.437296       1.201809
H       -3.178092      -6.983470       0.329292

H     0
S   5   1.00
    282.952156333090         0.0004300
     87.0622019486430        0.0005100
     26.7883698303517        0.0061600
      8.24257533241590       0.0130300
      2.53617702535874       0.0994900
S   1   1.00
      0.78036216164884       1.0000000
S   1   1.00
      0.24011143435349       1.0000000
P   1   1.00
      0.88150000000000       1.0000000
P   1   1.00
      0.17989200000000       1.0000000
****
C     0
S   6   1.00
   8846.12353391750          0.0005300
   2948.70784463917          0.0007700
    982.902614879722         0.0040500
    327.634204959907         0.0140300
    109.211401653302         0.0534500
     36.4038005511008        0.1702700
S   1   1.00
     12.1346001837003        1.0000000
S   1   1.00
      4.04486672790009       1.0000000
S   1   1.00
      1.34828890930003       1.0000000
S   1   1.00
      0.44942963643334       1.0000000
S   1   1.00
      0.14980987881111       1.0000000
P   4   1.00
     37.2940933931704        0.0039600
     11.4751056594370        0.0188900
      3.53080174136525       0.0946100
      1.08640053580469       0.3188900
P   1   1.00
      0.33427708793991       1.0000000
P   1   1.00
      0.10285448859689       1.0000000
D   1   1.00
      0.47750000000000       1.0000000
D   1   1.00
      0.11998000000000       1.0000000
****
P     0
S   7   1.00
  59538.0043013517           0.0009500
  21650.1833823097           0.0006100
   7872.79395720353          0.0037500
   2862.83416625583          0.0096300
   1041.03060591121          0.0324300
    378.556583967713         0.0995000
    137.656939624623         0.2657000
S   1   1.00
     50.0570689544083        1.0000000
S   1   1.00
     18.2025705288757        1.0000000
S   1   1.00
      6.61911655595482       1.0000000
S   1   1.00
      2.40695147489266       1.0000000
S   1   1.00
      0.87525508177915       1.0000000
S   1   1.00
      0.31827457519242       1.0000000
S   1   1.00
      0.11573620916088       1.0000000
S   1   1.00
      0.04208589424032       1.0000000
P   5   1.00
    487.996723151500         0.0021600
    162.665574383833         0.0097900
     54.2218581279445        0.0548500
     18.0739527093148        0.2177000
      6.02465090310494       0.4897800
P   1   1.00
      2.00821696770165       1.0000000
P   1   1.00
      0.66940565590055       1.0000000
P   1   1.00
      0.22313521863352       1.0000000
P   1   1.00
      0.07437840621117       1.0000000
P   1   1.00
      0.02479280207039       1.0000000
D   1   1.00
      0.35395000000000       1.0000000
D   1   1.00
      0.08909800000000       1.0000000
****
Br     0
S   7   1.00
 348670.995115554            0.0024100
 139468.398046222            0.0001200
  55787.3592184887           0.0058500
  22314.9436873955           0.0082100
   8925.97747495819          0.0240900
   3570.39098998328          0.0572500
   1428.15639599331          0.1446700
S   1   1.00
    571.262558397324         1.0000000
S   1   1.00
    228.505023358930         1.0000000
S   1   1.00
     91.4020093435719        1.0000000
S   1   1.00
     36.5608037374287        1.0000000
S   1   1.00
     14.6243214949715        1.0000000
S   1   1.00
      5.84972859798860       1.0000000
S   1   1.00
      2.33989143919544       1.0000000
S   1   1.00
      0.93595657567818       1.0000000
S   1   1.00
      0.37438263027127       1.0000000
S   1   1.00
      0.14975305210851       1.0000000
S   1   1.00
      0.05990122084340       1.0000000
P   5   1.00
   4271.50436123164          0.0020900
   1553.27431317514          0.0055700
    564.827022972778         0.0302500
    205.391644717374         0.1219600
     74.6878708063178        0.3786100
P   1   1.00
     27.1592257477519        1.0000000
P   1   1.00
      9.87608209009161       1.0000000
P   1   1.00
      3.59130257821513       1.0000000
P   1   1.00
      1.30592821026005       1.0000000
P   1   1.00
      0.47488298554911       1.0000000
P   1   1.00
      0.17268472201786       1.0000000
P   1   1.00
      0.06279444437013       1.0000000
P   1   1.00
      0.02283434340732       1.0000000
D   4   1.00
    157.766242822167         0.0079800
     52.5887476073889        0.0498700
     17.5295825357963        0.2240500
      5.84319417859877       0.4425000
D   1   1.00
      1.94773139286626       1.0000000
D   1   1.00
      0.64924379762209       1.0000000
F   1   1.00
      1.64800000000000       1.0000000
F   1   1.00
      0.45490000000000       1.0000000
****
Sn     0
S   8   1.00
 754482.145507175            0.0044300
 335325.398003189            0.0019800
 149033.510223639            0.0090500
  66237.1156549509           0.0048700
  29438.7180688671           0.0207700
  13083.8746972742           0.0329000
   5815.05542101078          0.0770100
   2584.46907600479          0.1516000
S   1   1.00
   1148.65292266880          1.0000000
S   1   1.00
    510.512410075020         1.0000000
S   1   1.00
    226.894404477787         1.0000000
S   1   1.00
    100.841957545683         1.0000000
S   1   1.00
     44.8186477980813        1.0000000
S   1   1.00
     19.9193990213695        1.0000000
S   1   1.00
      8.85306623171977       1.0000000
S   1   1.00
      3.93469610298656       1.0000000
S   1   1.00
      1.74875382354958       1.0000000
S   1   1.00
      0.77722392157759       1.0000000
S   1   1.00
      0.34543285403449       1.0000000
S   1   1.00
      0.15352571290422       1.0000000
S   1   1.00
      0.06823365017965       1.0000000
S   1   1.00
      0.01347825188734       1.0000000
P   5   1.00
  10090.6583042438           0.0027500
   4036.26332169752          0.0041800
   1614.50532867901          0.0208900
    645.802131471604         0.0713700
    258.320852588642         0.2261300
P   1   1.00
    103.328341035457         1.0000000
P   1   1.00
     41.3313364141826        1.0000000
P   1   1.00
     16.5325345656731        1.0000000
P   1   1.00
      6.61301382626922       1.0000000
P   1   1.00
      2.64520553050769       1.0000000
P   1   1.00
      1.05808221220308       1.0000000
P   1   1.00
      0.42323288488123       1.0000000
P   1   1.00
      0.16929315395249       1.0000000
P   1   1.00
      0.06771726158100       1.0000000
P   1   1.00
      0.02708690463240       1.0000000
P   1   1.00
      0.01083476185296       1.0000000
D   4   1.00
    554.302506505741         0.0043700
    201.564547820269         0.0251100
     73.2961992073707        0.1331600
     26.6531633481348        0.3890000
D   1   1.00
      9.69205939932174       1.0000000
D   1   1.00
      3.52438523611700       1.0000000
D   1   1.00
      1.28159463131527       1.0000000
D   1   1.00
      0.46603441138737       1.0000000
D   1   1.00
      0.16946705868632       1.0000000
F   1   1.00
      1.31400000000000       1.0000000
F   1   1.00
      0.19993000000000       1.0000000
****
Pt     0
S   9   1.00
2164481.60896527             0.0123200
1082240.80448263             0.0129700
 541120.402241316            0.0263700
 270560.201120658            0.0090400
 135280.100560329            0.0349800
  67640.0502801646           0.0122200
  33820.0251400823           0.0605200
  16910.0125700411           0.0649300
   8455.00628502057          0.1381900
S   1   1.00
   4227.50314251028          1.0000000
S   1   1.00
   2113.75157125514          1.0000000
S   1   1.00
   1056.87578562757          1.0000000
S   1   1.00
    528.437892813786         1.0000000
S   1   1.00
    264.218946406893         1.0000000
S   1   1.00
    132.109473203446         1.0000000
S   1   1.00
     66.0547366017232        1.0000000
S   1   1.00
     33.0273683008616        1.0000000
S   1   1.00
     16.5136841504308        1.0000000
S   1   1.00
      8.25684207521540       1.0000000
S   1   1.00
      4.12842103760770       1.0000000
S   1   1.00
      2.06421051880385       1.0000000
S   1   1.00
      1.03210525940192       1.0000000
S   1   1.00
      0.51605262970096       1.0000000
S   1   1.00
      0.25802631485048       1.0000000
S   1   1.00
      0.12901315742524       1.0000000
S   1   1.00
      0.06450657871262       1.0000000
P   7   1.00
  32357.9152575654           0.0050200
  14381.2956700291           0.0020200
   6391.68696445736          0.0180700
   2840.74976198105          0.0366200
   1262.55544976936          0.1117200
    561.135755453047         0.2558600
    249.393669090243         0.4260800
P   1   1.00
    110.841630706775         1.0000000
P   1   1.00
     49.2629469807888        1.0000000
P   1   1.00
     21.8946431025728        1.0000000
P   1   1.00
      9.73095249003235       1.0000000
P   1   1.00
      4.32486777334771       1.0000000
P   1   1.00
      1.92216345482120       1.0000000
P   1   1.00
      0.85429486880942       1.0000000
P   1   1.00
      0.37968660835974       1.0000000
P   1   1.00
      0.16874960371544       1.0000000
P   1   1.00
      0.07499982387353       1.0000000
P   1   1.00
      0.03333325505490       1.0000000
D   5   1.00
   1911.90035078584          0.0043300
    764.760140314335         0.0177800
    305.904056125734         0.0897100
    122.361622450294         0.3112300
     48.9446489801175        0.5320600
D   1   1.00
     19.5778595920470        1.0000000
D   1   1.00
      7.83114383681879       1.0000000
D   1   1.00
      3.13245753472752       1.0000000
D   1   1.00
      1.25298301389101       1.0000000
D   1   1.00
      0.50119320555640       1.0000000
D   1   1.00
      0.20047728222256       1.0000000
D   1   1.00
      0.08019091288902       1.0000000
D   1   1.00
      0.03207636515561       1.0000000
F   4   1.00
     82.2896809794193        0.0618700
     29.9235203561525        0.2482300
     10.8812801295100        0.4995600
      3.95682913800363       0.4038000
F   1   1.00
      1.43884695927405       1.0000000
F   1   1.00
      0.52321707609965       1.0000000
G   1   1.00
      2.67000000000000       1.0000000
G   1   1.00
      0.90960000000000       1.0000000
****







