%mem=7Gb
%nproc=4
#PBEPBE/gen scf=(maxcycle=500,conver=4) NMR=GIAO Scrf=(solvent=Dichloromethane)

estrutura 86

0 1
Pt       0.246254      -0.425512      -0.138235
C        0.253583      -2.474989      -0.510763
C        0.166494      -2.936953      -1.841951
C        0.375344      -3.453177       0.494011
C        0.247419      -4.298528      -2.157948
H        0.023959      -2.224422      -2.660197
C        0.452225      -4.817923       0.187743
H        0.416098      -3.153675       1.543760
C        0.400796      -5.249434      -1.142005
H        0.185207      -4.615685      -3.203478
H        0.553362      -5.547009       0.997918
H        0.465058      -6.314361      -1.384209
P        2.708019      -0.635147       0.102276
P        0.129429       2.025599      -0.034381
C        3.594661      -1.167528      -1.429538
C        4.963248      -1.499466      -1.411039
C        2.920002      -1.152463      -2.658190
C        5.622999      -1.853014      -2.589654
H        5.526766      -1.469866      -0.477267
C        3.585754      -1.490259      -3.841982
H        1.871149      -0.859236      -2.687948
C        4.933007      -1.853890      -3.808617
H        6.680931      -2.122796      -2.558197
H        3.047490      -1.465506      -4.792164
H        5.452762      -2.127055      -4.730888
C        3.040462      -1.924449       1.391017
C        2.478931      -1.732633       2.668568
C        3.764924      -3.101477       1.151973
C        2.676679      -2.664683       3.689646
H        1.860498      -0.856108       2.869900
C        3.956934      -4.039091       2.173189
H        4.167531      -3.314756       0.161725
C        3.423759      -3.821719       3.446246
H        2.235049      -2.489485       4.673893
H        4.522927      -4.950660       1.964274
H        3.577006      -4.555665       4.242303
C        3.821210       0.767828       0.626425
C        4.305979       1.641207      -0.364172
C        4.223400       0.975708       1.956774
C        5.179892       2.679626      -0.035624
H        4.018379       1.503461      -1.408354
C        5.093907       2.018633       2.283570
H        3.883106       0.312466       2.750942
C        5.579402       2.872840       1.290231
H        5.551232       3.338528      -0.825339
H        5.399303       2.155554       3.324732
H        6.270751       3.679672       1.546093
C       -1.507269       2.892894      -0.230936
C       -1.863645       3.616188      -1.378930
C       -2.408096       2.850682       0.847572
C       -3.090948       4.284539      -1.443602
H       -1.183568       3.672835      -2.229326
C       -3.632180       3.518032       0.780131
H       -2.152430       2.303256       1.756118
C       -3.978143       4.239731      -0.366520
H       -3.350216       4.846941      -2.343661
H       -4.316889       3.473146       1.629811
H       -4.934663       4.765854      -0.417543
C        1.106224       2.722567      -1.443399
C        1.994049       3.804717      -1.348006
C        0.917145       2.116066      -2.700848
C        2.662871       4.276631      -2.482819
H        2.188701       4.279782      -0.386436
C        1.579787       2.592895      -3.834684
H        0.243984       1.261858      -2.794389
C        2.456356       3.677364      -3.728162
H        3.355072       5.116073      -2.386925
H        1.413866       2.111712      -4.801777
H        2.979198       4.049115      -4.612594
C        0.687395       2.840204       1.527981
C        0.716607       4.240901       1.679002
C        0.968866       2.036141       2.642037
C        1.068790       4.813381       2.902436
H        0.441899       4.893200       0.847231
C        1.300123       2.609418       3.874547
H        0.902703       0.950849       2.544409
C        1.363053       3.998383       4.003241
H        1.099604       5.901416       3.000904
H        1.505773       1.966117       4.734119
H        1.626423       4.449261       4.962837
Sn      -2.390990      -0.768962      -0.019675
C       -3.268627      -0.353267       1.954390
C       -4.534621       0.229699       2.135769
C       -2.546950      -0.741619       3.097449
C       -5.065547       0.415728       3.418597
H       -5.121013       0.554592       1.272511
C       -3.073782      -0.559259       4.382454
H       -1.557817      -1.199592       2.992484
C       -4.336305       0.020651       4.545548
H       -6.053191       0.870749       3.537350
H       -2.497606      -0.872540       5.258030
H       -4.751041       0.163270       5.547113
Br      -3.343796      -3.239893      -0.106283
C       -3.691823      -0.034699      -1.630051
C       -5.092550      -0.157045      -1.573963
C       -3.121463       0.501993      -2.796124
C       -5.896403       0.262560      -2.640744
H       -5.573878      -0.601468      -0.698829
C       -3.920352       0.911919      -3.872159
H       -2.035119       0.601281      -2.878866
C       -5.311749       0.797284      -3.794045
H       -6.983874       0.164447      -2.573751
H       -3.453329       1.320815      -4.772579
H       -5.939312       1.118081      -4.630581

H     0
S   5   1.00
    282.952156333090         0.0004300
     87.0622019486430        0.0005100
     26.7883698303517        0.0061600
      8.24257533241590       0.0130300
      2.53617702535874       0.0994900
S   1   1.00
      0.78036216164884       1.0000000
S   1   1.00
      0.24011143435349       1.0000000
P   1   1.00
      0.88150000000000       1.0000000
P   1   1.00
      0.17989200000000       1.0000000
****
C     0
S   6   1.00
   8846.12353391750          0.0005300
   2948.70784463917          0.0007700
    982.902614879722         0.0040500
    327.634204959907         0.0140300
    109.211401653302         0.0534500
     36.4038005511008        0.1702700
S   1   1.00
     12.1346001837003        1.0000000
S   1   1.00
      4.04486672790009       1.0000000
S   1   1.00
      1.34828890930003       1.0000000
S   1   1.00
      0.44942963643334       1.0000000
S   1   1.00
      0.14980987881111       1.0000000
P   4   1.00
     37.2940933931704        0.0039600
     11.4751056594370        0.0188900
      3.53080174136525       0.0946100
      1.08640053580469       0.3188900
P   1   1.00
      0.33427708793991       1.0000000
P   1   1.00
      0.10285448859689       1.0000000
D   1   1.00
      0.47750000000000       1.0000000
D   1   1.00
      0.11998000000000       1.0000000
****
P     0
S   7   1.00
  59538.0043013517           0.0009500
  21650.1833823097           0.0006100
   7872.79395720353          0.0037500
   2862.83416625583          0.0096300
   1041.03060591121          0.0324300
    378.556583967713         0.0995000
    137.656939624623         0.2657000
S   1   1.00
     50.0570689544083        1.0000000
S   1   1.00
     18.2025705288757        1.0000000
S   1   1.00
      6.61911655595482       1.0000000
S   1   1.00
      2.40695147489266       1.0000000
S   1   1.00
      0.87525508177915       1.0000000
S   1   1.00
      0.31827457519242       1.0000000
S   1   1.00
      0.11573620916088       1.0000000
S   1   1.00
      0.04208589424032       1.0000000
P   5   1.00
    487.996723151500         0.0021600
    162.665574383833         0.0097900
     54.2218581279445        0.0548500
     18.0739527093148        0.2177000
      6.02465090310494       0.4897800
P   1   1.00
      2.00821696770165       1.0000000
P   1   1.00
      0.66940565590055       1.0000000
P   1   1.00
      0.22313521863352       1.0000000
P   1   1.00
      0.07437840621117       1.0000000
P   1   1.00
      0.02479280207039       1.0000000
D   1   1.00
      0.35395000000000       1.0000000
D   1   1.00
      0.08909800000000       1.0000000
****
Br     0
S   7   1.00
 348670.995115554            0.0024100
 139468.398046222            0.0001200
  55787.3592184887           0.0058500
  22314.9436873955           0.0082100
   8925.97747495819          0.0240900
   3570.39098998328          0.0572500
   1428.15639599331          0.1446700
S   1   1.00
    571.262558397324         1.0000000
S   1   1.00
    228.505023358930         1.0000000
S   1   1.00
     91.4020093435719        1.0000000
S   1   1.00
     36.5608037374287        1.0000000
S   1   1.00
     14.6243214949715        1.0000000
S   1   1.00
      5.84972859798860       1.0000000
S   1   1.00
      2.33989143919544       1.0000000
S   1   1.00
      0.93595657567818       1.0000000
S   1   1.00
      0.37438263027127       1.0000000
S   1   1.00
      0.14975305210851       1.0000000
S   1   1.00
      0.05990122084340       1.0000000
P   5   1.00
   4271.50436123164          0.0020900
   1553.27431317514          0.0055700
    564.827022972778         0.0302500
    205.391644717374         0.1219600
     74.6878708063178        0.3786100
P   1   1.00
     27.1592257477519        1.0000000
P   1   1.00
      9.87608209009161       1.0000000
P   1   1.00
      3.59130257821513       1.0000000
P   1   1.00
      1.30592821026005       1.0000000
P   1   1.00
      0.47488298554911       1.0000000
P   1   1.00
      0.17268472201786       1.0000000
P   1   1.00
      0.06279444437013       1.0000000
P   1   1.00
      0.02283434340732       1.0000000
D   4   1.00
    157.766242822167         0.0079800
     52.5887476073889        0.0498700
     17.5295825357963        0.2240500
      5.84319417859877       0.4425000
D   1   1.00
      1.94773139286626       1.0000000
D   1   1.00
      0.64924379762209       1.0000000
F   1   1.00
      1.64800000000000       1.0000000
F   1   1.00
      0.45490000000000       1.0000000
****
Sn     0
S   8   1.00
 754482.145507175            0.0044300
 335325.398003189            0.0019800
 149033.510223639            0.0090500
  66237.1156549509           0.0048700
  29438.7180688671           0.0207700
  13083.8746972742           0.0329000
   5815.05542101078          0.0770100
   2584.46907600479          0.1516000
S   1   1.00
   1148.65292266880          1.0000000
S   1   1.00
    510.512410075020         1.0000000
S   1   1.00
    226.894404477787         1.0000000
S   1   1.00
    100.841957545683         1.0000000
S   1   1.00
     44.8186477980813        1.0000000
S   1   1.00
     19.9193990213695        1.0000000
S   1   1.00
      8.85306623171977       1.0000000
S   1   1.00
      3.93469610298656       1.0000000
S   1   1.00
      1.74875382354958       1.0000000
S   1   1.00
      0.77722392157759       1.0000000
S   1   1.00
      0.34543285403449       1.0000000
S   1   1.00
      0.15352571290422       1.0000000
S   1   1.00
      0.06823365017965       1.0000000
S   1   1.00
      0.01347825188734       1.0000000
P   5   1.00
  10090.6583042438           0.0027500
   4036.26332169752          0.0041800
   1614.50532867901          0.0208900
    645.802131471604         0.0713700
    258.320852588642         0.2261300
P   1   1.00
    103.328341035457         1.0000000
P   1   1.00
     41.3313364141826        1.0000000
P   1   1.00
     16.5325345656731        1.0000000
P   1   1.00
      6.61301382626922       1.0000000
P   1   1.00
      2.64520553050769       1.0000000
P   1   1.00
      1.05808221220308       1.0000000
P   1   1.00
      0.42323288488123       1.0000000
P   1   1.00
      0.16929315395249       1.0000000
P   1   1.00
      0.06771726158100       1.0000000
P   1   1.00
      0.02708690463240       1.0000000
P   1   1.00
      0.01083476185296       1.0000000
D   4   1.00
    554.302506505741         0.0043700
    201.564547820269         0.0251100
     73.2961992073707        0.1331600
     26.6531633481348        0.3890000
D   1   1.00
      9.69205939932174       1.0000000
D   1   1.00
      3.52438523611700       1.0000000
D   1   1.00
      1.28159463131527       1.0000000
D   1   1.00
      0.46603441138737       1.0000000
D   1   1.00
      0.16946705868632       1.0000000
F   1   1.00
      1.31400000000000       1.0000000
F   1   1.00
      0.19993000000000       1.0000000
****
Pt     0
S   9   1.00
2164481.60896527             0.0123200
1082240.80448263             0.0129700
 541120.402241316            0.0263700
 270560.201120658            0.0090400
 135280.100560329            0.0349800
  67640.0502801646           0.0122200
  33820.0251400823           0.0605200
  16910.0125700411           0.0649300
   8455.00628502057          0.1381900
S   1   1.00
   4227.50314251028          1.0000000
S   1   1.00
   2113.75157125514          1.0000000
S   1   1.00
   1056.87578562757          1.0000000
S   1   1.00
    528.437892813786         1.0000000
S   1   1.00
    264.218946406893         1.0000000
S   1   1.00
    132.109473203446         1.0000000
S   1   1.00
     66.0547366017232        1.0000000
S   1   1.00
     33.0273683008616        1.0000000
S   1   1.00
     16.5136841504308        1.0000000
S   1   1.00
      8.25684207521540       1.0000000
S   1   1.00
      4.12842103760770       1.0000000
S   1   1.00
      2.06421051880385       1.0000000
S   1   1.00
      1.03210525940192       1.0000000
S   1   1.00
      0.51605262970096       1.0000000
S   1   1.00
      0.25802631485048       1.0000000
S   1   1.00
      0.12901315742524       1.0000000
S   1   1.00
      0.06450657871262       1.0000000
P   7   1.00
  32357.9152575654           0.0050200
  14381.2956700291           0.0020200
   6391.68696445736          0.0180700
   2840.74976198105          0.0366200
   1262.55544976936          0.1117200
    561.135755453047         0.2558600
    249.393669090243         0.4260800
P   1   1.00
    110.841630706775         1.0000000
P   1   1.00
     49.2629469807888        1.0000000
P   1   1.00
     21.8946431025728        1.0000000
P   1   1.00
      9.73095249003235       1.0000000
P   1   1.00
      4.32486777334771       1.0000000
P   1   1.00
      1.92216345482120       1.0000000
P   1   1.00
      0.85429486880942       1.0000000
P   1   1.00
      0.37968660835974       1.0000000
P   1   1.00
      0.16874960371544       1.0000000
P   1   1.00
      0.07499982387353       1.0000000
P   1   1.00
      0.03333325505490       1.0000000
D   5   1.00
   1911.90035078584          0.0043300
    764.760140314335         0.0177800
    305.904056125734         0.0897100
    122.361622450294         0.3112300
     48.9446489801175        0.5320600
D   1   1.00
     19.5778595920470        1.0000000
D   1   1.00
      7.83114383681879       1.0000000
D   1   1.00
      3.13245753472752       1.0000000
D   1   1.00
      1.25298301389101       1.0000000
D   1   1.00
      0.50119320555640       1.0000000
D   1   1.00
      0.20047728222256       1.0000000
D   1   1.00
      0.08019091288902       1.0000000
D   1   1.00
      0.03207636515561       1.0000000
F   4   1.00
     82.2896809794193        0.0618700
     29.9235203561525        0.2482300
     10.8812801295100        0.4995600
      3.95682913800363       0.4038000
F   1   1.00
      1.43884695927405       1.0000000
F   1   1.00
      0.52321707609965       1.0000000
G   1   1.00
      2.67000000000000       1.0000000
G   1   1.00
      0.90960000000000       1.0000000
****

