%mem=7Gb
%nproc=4
#PBEPBE/gen scf=(maxcycle=500,conver=3) NMR=GIAO Scrf=(solvent=Dichloromethane)

estrutura 84

0 1
Pt       0.0884640000     -0.2648320000      0.1422230000                 
C       -0.5195160000     -2.2051290000      0.6072260000                 
C       -0.5968190000     -3.2758820000     -0.3043570000                 
C       -0.8389250000     -2.4900430000      1.9514800000                 
C       -0.9464190000     -4.5679520000      0.1050610000                 
H       -0.3864800000     -3.1103630000     -1.3634250000                 
C       -1.1968340000     -3.7787050000      2.3677320000                 
H       -0.7958940000     -1.6927550000      2.7002300000                 
C       -1.2475880000     -4.8293250000      1.4455410000                 
H       -0.9900330000     -5.3744870000     -0.6331700000                 
H       -1.4332080000     -3.9610630000      3.4207050000                 
H       -1.5250410000     -5.8369560000      1.7664920000                 
P        2.3922450000     -1.1821470000      0.1684120000                 
P        0.5580810000      2.1142200000     -0.1402300000                 
C        2.7414180000     -1.9684670000     -1.4698910000                 
C        3.9803810000     -2.5857680000     -1.7236880000                 
C        1.7927660000     -1.8987590000     -2.5021850000                 
C        4.2492740000     -3.1481730000     -2.9741270000                 
H        4.7471490000     -2.6225690000     -0.9463460000                 
C        2.0666070000     -2.4572770000     -3.7572840000                 
H        0.8422710000     -1.3924680000     -2.3244600000                 
C        3.2892030000     -3.0875210000     -3.9920060000                 
H        5.2131600000     -3.6289900000     -3.1549830000                 
H        1.3175880000     -2.3930510000     -4.5509670000                 
H        3.5028290000     -3.5251670000     -4.9713410000                 
C        2.5974090000     -2.5083780000      1.4402250000                 
C        2.4288930000     -2.1544170000      2.7925920000                 
C        2.8762700000     -3.8471990000      1.1260580000                 
C        2.5787690000     -3.1043920000      3.8045980000                 
H        2.1708530000     -1.1283880000      3.0647120000                 
C        3.0088620000     -4.8022140000      2.1407110000                 
H        2.9830540000     -4.1606370000      0.0869630000                 
C        2.8714540000     -4.4332760000      3.4815120000                 
H        2.4534610000     -2.8062950000      4.8489700000                 
H        3.2216920000     -5.8408370000      1.8759700000                 
H        2.9813370000     -5.1805540000      4.2714590000                 
C        3.9431730000     -0.1733200000      0.3668050000                 
C        4.2815530000      0.7113710000     -0.6734290000                 
C        4.7980630000     -0.2591090000      1.4803110000                 
C        5.4369330000      1.4896090000     -0.6016870000                 
H        3.6439380000      0.7843600000     -1.5559910000                 
C        5.9536370000      0.5244870000      1.5498660000                 
H        4.5777710000     -0.9471050000      2.2961340000                 
C        6.2795940000      1.4024460000      0.5128410000                 
H        5.6809960000      2.1688450000     -1.4237650000                 
H        6.6085400000      0.4394880000      2.4222810000                 
H        7.1849250000      2.0103820000      0.5687720000                 
C       -0.8586290000      3.3162980000     -0.1000580000                 
C       -1.1652130000      4.1772530000     -1.1640730000                 
C       -1.6179900000      3.3957700000      1.0795940000                 
C       -2.2070070000      5.1038340000     -1.0463530000                 
H       -0.5952820000      4.1312690000     -2.0924220000                 
C       -2.6539160000      4.3243380000      1.1970880000                 
H       -1.3991180000      2.7316080000      1.9191010000                 
C       -2.9507250000      5.1831840000      0.1330050000                 
H       -2.4344570000      5.7670100000     -1.8852320000                 
H       -3.2352390000      4.3708090000      2.1208850000                 
H       -3.7627910000      5.9091310000      0.2236310000                 
C        1.3960230000      2.5213290000     -1.7382710000                 
C        2.4959500000      3.3858190000     -1.8602180000                 
C        0.8777930000      1.9143200000     -2.8972090000                 
C        3.0632040000      3.6379740000     -3.1143330000                 
H        2.9304330000      3.8575270000     -0.9792250000                 
C        1.4431160000      2.1728270000     -4.1491530000                 
H        0.0143120000      1.2494690000     -2.8231390000                 
C        2.5397600000      3.0345720000     -4.2606020000                 
H        3.9214130000      4.3105670000     -3.1906770000                 
H        1.0255560000      1.6967380000     -5.0393410000                 
H        2.9848970000      3.2331000000     -5.2388010000                 
C        1.5718340000      2.8540630000      1.2245730000                 
C        1.8140960000      4.2400980000      1.2918100000                 
C        2.0209810000      2.0431630000      2.2763880000                 
C        2.5206130000      4.7865800000      2.3649840000                 
H        1.4321960000      4.9044940000      0.5140310000                 
C        2.7181160000      2.5912970000      3.3588750000                 
H        1.8040310000      0.9750570000      2.2530580000                 
C        2.9765420000      3.9626330000      3.4014060000                 
H        2.7049810000      5.8630360000      2.3987620000                 
H        3.0551940000      1.9420090000      4.1707370000                 
H        3.5215410000      4.3935190000      4.2451060000                 
Sn      -2.5102610000     -0.1215850000     -0.3370590000                 
C       -3.9137460000      0.7381630000      1.1166370000                 
C       -5.1171770000      1.3199580000      0.6831990000                 
C       -3.6601680000      0.6767600000      2.4972530000                 
C       -6.0409030000      1.8293170000      1.6033190000                 
H       -5.3376560000      1.3918130000     -0.3863590000                 
C       -4.5839240000      1.1804970000      3.4219070000                 
H       -2.7297060000      0.2354800000      2.8698580000                 
C       -5.7761080000      1.7594190000      2.9759190000                 
H       -6.9704560000      2.2828070000      1.2471920000                 
H       -4.3703600000      1.1218370000      4.4935090000                 
H       -6.4976820000      2.1555590000      3.6951320000                 
C       -3.6523360000     -1.8499040000     -1.0654860000                 
C       -3.8331200000     -2.1037810000     -2.4353860000                 
C       -4.2502250000     -2.7251240000     -0.1422380000                 
C       -4.5821500000     -3.2046860000     -2.8715040000                 
H       -3.4010860000     -1.4241610000     -3.1749560000                 
C       -5.0011600000     -3.8254080000     -0.5730680000                 
H       -4.1333360000     -2.5590660000      0.9330880000                 
C       -5.1675280000     -4.0695020000     -1.9409460000                 
H       -4.7132120000     -3.3841000000     -3.9428290000                 
H       -5.4578160000     -4.4941630000      0.1624100000                 
H       -5.7541780000     -4.9282250000     -2.2796150000                 
Cl      -2.9204760000      1.2752070000     -2.3482950000                 

H     0
S   5   1.00
    282.952156333090         0.0004300
     87.0622019486430        0.0005100
     26.7883698303517        0.0061600
      8.24257533241590       0.0130300
      2.53617702535874       0.0994900
S   1   1.00
      0.78036216164884       1.0000000
S   1   1.00
      0.24011143435349       1.0000000
P   1   1.00
      0.88150000000000       1.0000000
P   1   1.00
      0.17989200000000       1.0000000
****
C     0
S   6   1.00
   8846.12353391750          0.0005300
   2948.70784463917          0.0007700
    982.902614879722         0.0040500
    327.634204959907         0.0140300
    109.211401653302         0.0534500
     36.4038005511008        0.1702700
S   1   1.00
     12.1346001837003        1.0000000
S   1   1.00
      4.04486672790009       1.0000000
S   1   1.00
      1.34828890930003       1.0000000
S   1   1.00
      0.44942963643334       1.0000000
S   1   1.00
      0.14980987881111       1.0000000
P   4   1.00
     37.2940933931704        0.0039600
     11.4751056594370        0.0188900
      3.53080174136525       0.0946100
      1.08640053580469       0.3188900
P   1   1.00
      0.33427708793991       1.0000000
P   1   1.00
      0.10285448859689       1.0000000
D   1   1.00
      0.47750000000000       1.0000000
D   1   1.00
      0.11998000000000       1.0000000
****
P     0
S   7   1.00
  59538.0043013517           0.0009500
  21650.1833823097           0.0006100
   7872.79395720353          0.0037500
   2862.83416625583          0.0096300
   1041.03060591121          0.0324300
    378.556583967713         0.0995000
    137.656939624623         0.2657000
S   1   1.00
     50.0570689544083        1.0000000
S   1   1.00
     18.2025705288757        1.0000000
S   1   1.00
      6.61911655595482       1.0000000
S   1   1.00
      2.40695147489266       1.0000000
S   1   1.00
      0.87525508177915       1.0000000
S   1   1.00
      0.31827457519242       1.0000000
S   1   1.00
      0.11573620916088       1.0000000
S   1   1.00
      0.04208589424032       1.0000000
P   5   1.00
    487.996723151500         0.0021600
    162.665574383833         0.0097900
     54.2218581279445        0.0548500
     18.0739527093148        0.2177000
      6.02465090310494       0.4897800
P   1   1.00
      2.00821696770165       1.0000000
P   1   1.00
      0.66940565590055       1.0000000
P   1   1.00
      0.22313521863352       1.0000000
P   1   1.00
      0.07437840621117       1.0000000
P   1   1.00
      0.02479280207039       1.0000000
D   1   1.00
      0.35395000000000       1.0000000
D   1   1.00
      0.08909800000000       1.0000000
****
Cl     0
S   7   1.00
  77142.8171643825           0.0010600
  28051.9335143209           0.0006400
  10200.7030961167           0.0039600
   3709.34658040607          0.0098300
   1348.85330196584          0.0326900
    490.492109805761         0.0995200
    178.360767202095         0.2655500
S   1   1.00
     64.8584608007618        1.0000000
S   1   1.00
     23.5848948366407        1.0000000
S   1   1.00
      8.57632539514206       1.0000000
S   1   1.00
      3.11866378005166       1.0000000
S   1   1.00
      1.13405955638242       1.0000000
S   1   1.00
      0.41238529322997       1.0000000
S   1   1.00
      0.14995828844726       1.0000000
S   1   1.00
      0.05453028670810       1.0000000
P   5   1.00
    694.985360568515         0.0020000
    231.661786856172         0.0089500
     77.2205956187239        0.0511300
     25.7401985395746        0.2101100
      8.58006617985821       0.4973800
P   1   1.00
      2.86002205995274       1.0000000
P   1   1.00
      0.95334068665091       1.0000000
P   1   1.00
      0.31778022888364       1.0000000
P   1   1.00
      0.10592674296121       1.0000000
P   1   1.00
      0.03530891432040       1.0000000
D   1   1.00
      0.55696000000000       1.0000000
D   1   1.00
      0.15619100000000       1.0000000
****
Sn     0
S   8   1.00
 754482.145507175            0.0044300
 335325.398003189            0.0019800
 149033.510223639            0.0090500
  66237.1156549509           0.0048700
  29438.7180688671           0.0207700
  13083.8746972742           0.0329000
   5815.05542101078          0.0770100
   2584.46907600479          0.1516000
S   1   1.00
   1148.65292266880          1.0000000
S   1   1.00
    510.512410075020         1.0000000
S   1   1.00
    226.894404477787         1.0000000
S   1   1.00
    100.841957545683         1.0000000
S   1   1.00
     44.8186477980813        1.0000000
S   1   1.00
     19.9193990213695        1.0000000
S   1   1.00
      8.85306623171977       1.0000000
S   1   1.00
      3.93469610298656       1.0000000
S   1   1.00
      1.74875382354958       1.0000000
S   1   1.00
      0.77722392157759       1.0000000
S   1   1.00
      0.34543285403449       1.0000000
S   1   1.00
      0.15352571290422       1.0000000
S   1   1.00
      0.06823365017965       1.0000000
S   1   1.00
      0.01347825188734       1.0000000
P   5   1.00
  10090.6583042438           0.0027500
   4036.26332169752          0.0041800
   1614.50532867901          0.0208900
    645.802131471604         0.0713700
    258.320852588642         0.2261300
P   1   1.00
    103.328341035457         1.0000000
P   1   1.00
     41.3313364141826        1.0000000
P   1   1.00
     16.5325345656731        1.0000000
P   1   1.00
      6.61301382626922       1.0000000
P   1   1.00
      2.64520553050769       1.0000000
P   1   1.00
      1.05808221220308       1.0000000
P   1   1.00
      0.42323288488123       1.0000000
P   1   1.00
      0.16929315395249       1.0000000
P   1   1.00
      0.06771726158100       1.0000000
P   1   1.00
      0.02708690463240       1.0000000
P   1   1.00
      0.01083476185296       1.0000000
D   4   1.00
    554.302506505741         0.0043700
    201.564547820269         0.0251100
     73.2961992073707        0.1331600
     26.6531633481348        0.3890000
D   1   1.00
      9.69205939932174       1.0000000
D   1   1.00
      3.52438523611700       1.0000000
D   1   1.00
      1.28159463131527       1.0000000
D   1   1.00
      0.46603441138737       1.0000000
D   1   1.00
      0.16946705868632       1.0000000
F   1   1.00
      1.31400000000000       1.0000000
F   1   1.00
      0.19993000000000       1.0000000
****
Pt     0
S   9   1.00
2164481.60896527             0.0123200
1082240.80448263             0.0129700
 541120.402241316            0.0263700
 270560.201120658            0.0090400
 135280.100560329            0.0349800
  67640.0502801646           0.0122200
  33820.0251400823           0.0605200
  16910.0125700411           0.0649300
   8455.00628502057          0.1381900
S   1   1.00
   4227.50314251028          1.0000000
S   1   1.00
   2113.75157125514          1.0000000
S   1   1.00
   1056.87578562757          1.0000000
S   1   1.00
    528.437892813786         1.0000000
S   1   1.00
    264.218946406893         1.0000000
S   1   1.00
    132.109473203446         1.0000000
S   1   1.00
     66.0547366017232        1.0000000
S   1   1.00
     33.0273683008616        1.0000000
S   1   1.00
     16.5136841504308        1.0000000
S   1   1.00
      8.25684207521540       1.0000000
S   1   1.00
      4.12842103760770       1.0000000
S   1   1.00
      2.06421051880385       1.0000000
S   1   1.00
      1.03210525940192       1.0000000
S   1   1.00
      0.51605262970096       1.0000000
S   1   1.00
      0.25802631485048       1.0000000
S   1   1.00
      0.12901315742524       1.0000000
S   1   1.00
      0.06450657871262       1.0000000
P   7   1.00
  32357.9152575654           0.0050200
  14381.2956700291           0.0020200
   6391.68696445736          0.0180700
   2840.74976198105          0.0366200
   1262.55544976936          0.1117200
    561.135755453047         0.2558600
    249.393669090243         0.4260800
P   1   1.00
    110.841630706775         1.0000000
P   1   1.00
     49.2629469807888        1.0000000
P   1   1.00
     21.8946431025728        1.0000000
P   1   1.00
      9.73095249003235       1.0000000
P   1   1.00
      4.32486777334771       1.0000000
P   1   1.00
      1.92216345482120       1.0000000
P   1   1.00
      0.85429486880942       1.0000000
P   1   1.00
      0.37968660835974       1.0000000
P   1   1.00
      0.16874960371544       1.0000000
P   1   1.00
      0.07499982387353       1.0000000
P   1   1.00
      0.03333325505490       1.0000000
D   5   1.00
   1911.90035078584          0.0043300
    764.760140314335         0.0177800
    305.904056125734         0.0897100
    122.361622450294         0.3112300
     48.9446489801175        0.5320600
D   1   1.00
     19.5778595920470        1.0000000
D   1   1.00
      7.83114383681879       1.0000000
D   1   1.00
      3.13245753472752       1.0000000
D   1   1.00
      1.25298301389101       1.0000000
D   1   1.00
      0.50119320555640       1.0000000
D   1   1.00
      0.20047728222256       1.0000000
D   1   1.00
      0.08019091288902       1.0000000
D   1   1.00
      0.03207636515561       1.0000000
F   4   1.00
     82.2896809794193        0.0618700
     29.9235203561525        0.2482300
     10.8812801295100        0.4995600
      3.95682913800363       0.4038000
F   1   1.00
      1.43884695927405       1.0000000
F   1   1.00
      0.52321707609965       1.0000000
G   1   1.00
      2.67000000000000       1.0000000
G   1   1.00
      0.90960000000000       1.0000000
****







