%mem=30Gb
%nproc=24
#PBEPBE/gen scf=(maxcycle=500,conver=4) NMR=GIAO Scrf=(solvent=Dichloromethane)

estrutura 88

0 1
Pt      -0.195184       0.336795      -0.046991
C        0.333639       2.444462      -0.161839
C        0.412674       3.071430      -1.415913
C        0.383972       3.261358       0.978391
C        0.487659       4.463090      -1.529319
H        0.420786       2.480262      -2.323231
C        0.467724       4.652723       0.870685
H        0.353109       2.821390       1.966416
C        0.513921       5.260777      -0.384555
H        0.536644       4.918534      -2.510884
H        0.497873       5.257691       1.768478
H        0.581067       6.337680      -0.469600
P       -2.909850       1.096966       0.162852
P       -0.549273      -2.249663      -0.115354
C       -3.638815       1.840456      -1.378450
C       -4.988567       2.220218      -1.456185
C       -2.824793       1.995858      -2.505184
C       -5.504039       2.757845      -2.634097
H       -5.639540       2.091815      -0.602216
C       -3.341095       2.534470      -3.686401
H       -1.787426       1.696029      -2.459625
C       -4.680256       2.918063      -3.751809
H       -6.545212       3.048919      -2.680523
H       -2.698363       2.649210      -4.549466
H       -5.082607       3.333839      -4.666158
C       -2.986798       2.456144       1.430235
C       -2.483009       2.184871       2.712287
C       -3.471385       3.740053       1.156560
C       -2.497153       3.161207       3.706575
H       -2.071078       1.209757       2.939533
C       -3.472055       4.723588       2.148931
H       -3.841591       3.984219       0.171365
C       -2.993637       4.436394       3.426980
H       -2.112322       2.930125       4.691451
H       -3.845399       5.712892       1.918315
H       -2.997601       5.198649       4.194664
C       -4.315168      -0.026437       0.677661
C       -4.708038      -1.030538      -0.222516
C       -4.981259       0.078673       1.904877
C       -5.749999      -1.900920       0.094639
H       -4.212283      -1.130000      -1.179433
C       -6.021277      -0.799711       2.223998
H       -4.707307       0.846492       2.613551
C       -6.409711      -1.789692       1.321218
H       -6.043617      -2.661869      -0.616602
H       -6.528130      -0.699399       3.175178
H       -7.219084      -2.464815       1.566848
C        0.853174      -3.437504      -0.435977
C        1.051135      -4.036579      -1.685921
C        1.751217      -3.723645       0.602310
C        2.120731      -4.910974      -1.889824
H        0.375651      -3.830733      -2.503568
C        2.815436      -4.599764       0.398158
H        1.621856      -3.268840       1.574188
C        3.004075      -5.197281      -0.849655
H        2.260147      -5.364880      -2.862179
H        3.496379      -4.811439       1.211939
H        3.831516      -5.876171      -1.007905
C       -1.709440      -2.653231      -1.514228
C       -2.605717      -3.729272      -1.499642
C       -1.638210      -1.844833      -2.658028
C       -3.411430      -3.992353      -2.607919
H       -2.690032      -4.360375      -0.627117
C       -2.439172      -2.112539      -3.769330
H       -0.956594      -1.003669      -2.681460
C       -3.327871      -3.187986      -3.746371
H       -4.101503      -4.825501      -2.581618
H       -2.370183      -1.480611      -4.645111
H       -3.952435      -3.395395      -4.605057
C       -1.302100      -2.990468       1.414579
C       -1.381196      -4.375764       1.629120
C       -1.771709      -2.125344       2.410314
C       -1.941753      -4.878454       2.802121
H       -0.990469      -5.064568       0.892745
C       -2.329224      -2.627675       3.587337
H       -1.690962      -1.056522       2.266171
C       -2.417939      -4.005442       3.783859
H       -1.997732      -5.948581       2.953626
H       -2.685647      -1.944810       4.347308
H       -2.846932      -4.398212       4.696046
Sn(Iso=119)       2.481401       0.495489       0.058509
C        3.327677      -0.674268       1.717989
C        4.640855      -1.170560       1.675531
C        2.576072      -0.894828       2.882893
C        5.181812      -1.872131       2.755081
H        5.251261      -1.020922       0.792236
C        3.114607      -1.588264       3.971054
H        1.555077      -0.533370       2.945929
C        4.419527      -2.081014       3.907425
H        6.194129      -2.253365       2.697479
H        2.517500      -1.746248       4.860773
H        4.837982      -2.623859       4.744917
C        3.791966       2.258949       0.109493
C        4.434382       2.599271       1.310923
C        4.024975       3.069931      -1.012075
C        5.279023       3.710953       1.391605
H        4.288945       1.992757       2.196743
C        4.870389       4.178991      -0.938950
H        3.550475       2.838746      -1.957286
C        5.500019       4.503428       0.265099
H        5.764051       3.951824       2.329457
H        5.037081       4.787723      -1.818799
H        6.155962       5.362427       0.322947
I        3.574426      -0.698777      -2.295575

H     0
S   5   1.00
    282.952156333090         0.0004300
     87.0622019486430        0.0005100
     26.7883698303517        0.0061600
      8.24257533241590       0.0130300
      2.53617702535874       0.0994900
S   1   1.00
      0.78036216164884       1.0000000
S   1   1.00
      0.24011143435349       1.0000000
P   1   1.00
      0.88150000000000       1.0000000
P   1   1.00
      0.17989200000000       1.0000000
****
C     0
S   6   1.00
   8846.12353391750          0.0005300
   2948.70784463917          0.0007700
    982.902614879722         0.0040500
    327.634204959907         0.0140300
    109.211401653302         0.0534500
     36.4038005511008        0.1702700
S   1   1.00
     12.1346001837003        1.0000000
S   1   1.00
      4.04486672790009       1.0000000
S   1   1.00
      1.34828890930003       1.0000000
S   1   1.00
      0.44942963643334       1.0000000
S   1   1.00
      0.14980987881111       1.0000000
P   4   1.00
     37.2940933931704        0.0039600
     11.4751056594370        0.0188900
      3.53080174136525       0.0946100
      1.08640053580469       0.3188900
P   1   1.00
      0.33427708793991       1.0000000
P   1   1.00
      0.10285448859689       1.0000000
D   1   1.00
      0.47750000000000       1.0000000
D   1   1.00
      0.11998000000000       1.0000000
****
P     0
S   7   1.00
  59538.0043013517           0.0009500
  21650.1833823097           0.0006100
   7872.79395720353          0.0037500
   2862.83416625583          0.0096300
   1041.03060591121          0.0324300
    378.556583967713         0.0995000
    137.656939624623         0.2657000
S   1   1.00
     50.0570689544083        1.0000000
S   1   1.00
     18.2025705288757        1.0000000
S   1   1.00
      6.61911655595482       1.0000000
S   1   1.00
      2.40695147489266       1.0000000
S   1   1.00
      0.87525508177915       1.0000000
S   1   1.00
      0.31827457519242       1.0000000
S   1   1.00
      0.11573620916088       1.0000000
S   1   1.00
      0.04208589424032       1.0000000
P   5   1.00
    487.996723151500         0.0021600
    162.665574383833         0.0097900
     54.2218581279445        0.0548500
     18.0739527093148        0.2177000
      6.02465090310494       0.4897800
P   1   1.00
      2.00821696770165       1.0000000
P   1   1.00
      0.66940565590055       1.0000000
P   1   1.00
      0.22313521863352       1.0000000
P   1   1.00
      0.07437840621117       1.0000000
P   1   1.00
      0.02479280207039       1.0000000
D   1   1.00
      0.35395000000000       1.0000000
D   1   1.00
      0.08909800000000       1.0000000
****
Sn     0
S   8   1.00
 754482.145507175            0.0044300
 335325.398003189            0.0019800
 149033.510223639            0.0090500
  66237.1156549509           0.0048700
  29438.7180688671           0.0207700
  13083.8746972742           0.0329000
   5815.05542101078          0.0770100
   2584.46907600479          0.1516000
S   1   1.00
   1148.65292266880          1.0000000
S   1   1.00
    510.512410075020         1.0000000
S   1   1.00
    226.894404477787         1.0000000
S   1   1.00
    100.841957545683         1.0000000
S   1   1.00
     44.8186477980813        1.0000000
S   1   1.00
     19.9193990213695        1.0000000
S   1   1.00
      8.85306623171977       1.0000000
S   1   1.00
      3.93469610298656       1.0000000
S   1   1.00
      1.74875382354958       1.0000000
S   1   1.00
      0.77722392157759       1.0000000
S   1   1.00
      0.34543285403449       1.0000000
S   1   1.00
      0.15352571290422       1.0000000
S   1   1.00
      0.06823365017965       1.0000000
S   1   1.00
      0.01347825188734       1.0000000
P   5   1.00
  10090.6583042438           0.0027500
   4036.26332169752          0.0041800
   1614.50532867901          0.0208900
    645.802131471604         0.0713700
    258.320852588642         0.2261300
P   1   1.00
    103.328341035457         1.0000000
P   1   1.00
     41.3313364141826        1.0000000
P   1   1.00
     16.5325345656731        1.0000000
P   1   1.00
      6.61301382626922       1.0000000
P   1   1.00
      2.64520553050769       1.0000000
P   1   1.00
      1.05808221220308       1.0000000
P   1   1.00
      0.42323288488123       1.0000000
P   1   1.00
      0.16929315395249       1.0000000
P   1   1.00
      0.06771726158100       1.0000000
P   1   1.00
      0.02708690463240       1.0000000
P   1   1.00
      0.01083476185296       1.0000000
D   4   1.00
    554.302506505741         0.0043700
    201.564547820269         0.0251100
     73.2961992073707        0.1331600
     26.6531633481348        0.3890000
D   1   1.00
      9.69205939932174       1.0000000
D   1   1.00
      3.52438523611700       1.0000000
D   1   1.00
      1.28159463131527       1.0000000
D   1   1.00
      0.46603441138737       1.0000000
D   1   1.00
      0.16946705868632       1.0000000
F   1   1.00
      1.31400000000000       1.0000000
F   1   1.00
      0.19993000000000       1.0000000
****
I     0
S   8   1.00
 859363.607413965            0.0048500
 381939.381072873            0.0022000
 169750.836032388            0.0098300
  75444.8160143947           0.0050600
  33531.0293397310           0.0220200
  14902.6797065471           0.0339300
   6623.41320290982          0.0787500
   2943.73920129326          0.1521800
S   1   1.00
   1308.32853390811          1.0000000
S   1   1.00
    581.479348403606         1.0000000
S   1   1.00
    258.435265957158         1.0000000
S   1   1.00
    114.860118203181         1.0000000
S   1   1.00
     51.0489414236362        1.0000000
S   1   1.00
     22.6884184105050        1.0000000
S   1   1.00
     10.0837415157800        1.0000000
S   1   1.00
      4.48166289590222       1.0000000
S   1   1.00
      1.99185017595654       1.0000000
S   1   1.00
      0.88526674486957       1.0000000
S   1   1.00
      0.39345188660870       1.0000000
S   1   1.00
      0.17486750515942       1.0000000
S   1   1.00
      0.07771889118197       1.0000000
S   1   1.00
      0.03454172941421       1.0000000
P   5   1.00
  11648.9850075240           0.0029200
   4659.59400300961          0.0042200
   1863.83760120385          0.0210700
    745.535040481538         0.0707000
    298.214016192615         0.2236400
P   1   1.00
    119.285606477046         1.0000000
P   1   1.00
     47.7142425908184        1.0000000
P   1   1.00
     19.0856970363274        1.0000000
P   1   1.00
      7.63427881453095       1.0000000
P   1   1.00
      3.05371152581238       1.0000000
P   1   1.00
      1.22148461032495       1.0000000
P   1   1.00
      0.48859384412998       1.0000000
P   1   1.00
      0.19543753765199       1.0000000
P   1   1.00
      0.07817501506080       1.0000000
P   1   1.00
      0.03127000602432       1.0000000
P   1   1.00
      0.01250800240973       1.0000000
D   4   1.00
    659.513527911096         0.0041800
    239.823101058580         0.0241000
     87.2084003849383        0.1295900
     31.7121455945230        0.3898600
D   1   1.00
     11.5316893070993        1.0000000
D   1   1.00
      4.19334156621792       1.0000000
D   1   1.00
      1.52485147862470       1.0000000
D   1   1.00
      0.55449144677262       1.0000000
D   1   1.00
      0.20163325337186       1.0000000
F   1   1.00
      1.39970000000000       1.0000000
F   1   1.00
      0.33030000000000       1.0000000
****
Pt     0
S   9   1.00
2164481.60896527             0.0123200
1082240.80448263             0.0129700
 541120.402241316            0.0263700
 270560.201120658            0.0090400
 135280.100560329            0.0349800
  67640.0502801646           0.0122200
  33820.0251400823           0.0605200
  16910.0125700411           0.0649300
   8455.00628502057          0.1381900
S   1   1.00
   4227.50314251028          1.0000000
S   1   1.00
   2113.75157125514          1.0000000
S   1   1.00
   1056.87578562757          1.0000000
S   1   1.00
    528.437892813786         1.0000000
S   1   1.00
    264.218946406893         1.0000000
S   1   1.00
    132.109473203446         1.0000000
S   1   1.00
     66.0547366017232        1.0000000
S   1   1.00
     33.0273683008616        1.0000000
S   1   1.00
     16.5136841504308        1.0000000
S   1   1.00
      8.25684207521540       1.0000000
S   1   1.00
      4.12842103760770       1.0000000
S   1   1.00
      2.06421051880385       1.0000000
S   1   1.00
      1.03210525940192       1.0000000
S   1   1.00
      0.51605262970096       1.0000000
S   1   1.00
      0.25802631485048       1.0000000
S   1   1.00
      0.12901315742524       1.0000000
S   1   1.00
      0.06450657871262       1.0000000
P   7   1.00
  32357.9152575654           0.0050200
  14381.2956700291           0.0020200
   6391.68696445736          0.0180700
   2840.74976198105          0.0366200
   1262.55544976936          0.1117200
    561.135755453047         0.2558600
    249.393669090243         0.4260800
P   1   1.00
    110.841630706775         1.0000000
P   1   1.00
     49.2629469807888        1.0000000
P   1   1.00
     21.8946431025728        1.0000000
P   1   1.00
      9.73095249003235       1.0000000
P   1   1.00
      4.32486777334771       1.0000000
P   1   1.00
      1.92216345482120       1.0000000
P   1   1.00
      0.85429486880942       1.0000000
P   1   1.00
      0.37968660835974       1.0000000
P   1   1.00
      0.16874960371544       1.0000000
P   1   1.00
      0.07499982387353       1.0000000
P   1   1.00
      0.03333325505490       1.0000000
D   5   1.00
   1911.90035078584          0.0043300
    764.760140314335         0.0177800
    305.904056125734         0.0897100
    122.361622450294         0.3112300
     48.9446489801175        0.5320600
D   1   1.00
     19.5778595920470        1.0000000
D   1   1.00
      7.83114383681879       1.0000000
D   1   1.00
      3.13245753472752       1.0000000
D   1   1.00
      1.25298301389101       1.0000000
D   1   1.00
      0.50119320555640       1.0000000
D   1   1.00
      0.20047728222256       1.0000000
D   1   1.00
      0.08019091288902       1.0000000
D   1   1.00
      0.03207636515561       1.0000000
F   4   1.00
     82.2896809794193        0.0618700
     29.9235203561525        0.2482300
     10.8812801295100        0.4995600
      3.95682913800363       0.4038000
F   1   1.00
      1.43884695927405       1.0000000
F   1   1.00
      0.52321707609965       1.0000000
G   1   1.00
      2.67000000000000       1.0000000
G   1   1.00
      0.90960000000000       1.0000000
****

